 &GLOBAL
   PRINT_LEVEL  MEDIUM
   PROJECT_NAME CZTS-MD
   RUN_TYPE  ENERGY
 &END GLOBAL
 &FORCE_EVAL
  METHOD  QS
  &PROPERTIES
    &TDDFPT
       NSTATES     130             # number of excited states
       MAX_ITER    200           # maximum number of Davidson iterations
       CONVERGENCE [eV] 1.0e-5   # convergence on maximum energy change between iterations
       &MGRID
          NGRIDS 12
          CUTOFF 300
       &END

       !RESTART     .TRUE.
       !WFN_RESTART_FILE_NAME RESTART.tdwfn

    &END TDDFPT
  &END PROPERTIES
  &DFT
    UKS .FALSE. 
    BASIS_SET_FILE_NAME BASIS_MOLOPT
    POTENTIAL_FILE_NAME POTENTIAL 
    &MGRID
      NGRIDS 12
      CUTOFF 300
      REL_CUTOFF 50
    &END MGRID
    &QS
      METHOD GPW
      EPS_DEFAULT 1.000E-14
    &END QS
    &POISSON
      PERIODIC XYZ 
      PSOLVER PERIODIC
    &END
    &SCF
      &DIAGONALIZATION ON
      &END DIAGONALIZATION
      &MIXING
        ALPHA 0.3
        METHOD BROYDEN_MIXING
        NBROYDEN 8
      &END MIXING
      EPS_SCF 1.0E-6
      SCF_GUESS ATOMIC
      MAX_SCF  50
      ADDED_MOS 50
    &END SCF
    &XC
      &XC_FUNCTIONAL
         &PBE
         &END PBE
      &END XC_FUNCTIONAL
      &VDW_POTENTIAL
         POTENTIAL_TYPE PAIR_POTENTIAL 
         &PAIR_POTENTIAL
            PARAMETER_FILE_NAME dftd3.dat
            TYPE DFTD3
            REFERENCE_FUNCTIONAL PBE
            R_CUTOFF [angstrom] 16
         &END
      &END VDW_POTENTIAL
    &END XC
    &PRINT
      &MULLIKEN OFF
      &END
      &HIRSHFELD OFF
      &END
      &MO ON
        FILENAME czts
        EIGENVECTORS F
        EIGENVALUES F
        NDIGITS 8
      &END
      &PDOS
        APPEND T
        COMPONENTS T
        FILENAME czts
      &END
      &MO_MOLDEN ON
        FILENAME
        NDIGITS 8
        GTO_KIND SPHERICAL
      &END
      !&MO_CUBES
      !  NHOMO 1 
      !  NLUMO 1 
      !  STRIDE 1 1 1 
      !  WRITE_CUBE T
      !&END
    &END PRINT
  &END DFT
  &SUBSYS

    &CELL
      A  10.8683996201         0.0000000000         0.0000000000
      B  0.0000000000         10.8683996201         0.0000000000
      C  0.0000000000         0.0000000000        10.8495998383
      PERIODIC  XYZ 
    &END CELL

    &TOPOLOGY
      COORD_FILE_NAME cu2snzns4.xyz
      COORD_FILE_FORMAT XYZ
      ! Only in case you use cif file
      !&GENERATE
      !  REORDER T
      !&END
    &END

    &KIND  Zn
      BASIS_SET DZVP-MOLOPT-SR-GTH
      POTENTIAL GTH-PBE-q12
    &END KIND
    &KIND  Sn
      BASIS_SET DZVP-MOLOPT-SR-GTH
      POTENTIAL GTH-PBE-q4
    &END KIND
    &KIND  S
      BASIS_SET DZVP-MOLOPT-SR-GTH
      POTENTIAL GTH-PBE-q6
    &END KIND
    &KIND  Cu
      BASIS_SET DZVP-MOLOPT-SR-GTH
      POTENTIAL GTH-PBE-q11
      &DFT_PLUS_U
        L 2
        U_MINUS_J [ev] 6.0
      &END
    &END KIND

  &END SUBSYS
 &END FORCE_EVAL


